c turning on binary mode checking
c parsing input formula with 202048 variables and 780980 clauses
c finished parsing, read 2148145 bytes from proof file
c detected empty clause; start verification via backward checking
c 1874 of 780980 clauses in core                            
c 588 of 82931 lemmas in core using 11093 resolution steps
c 0 RAT lemmas in core; 37 redundant literals in core lemmas
s VERIFIED
c verification time: 1.020 seconds
